NAME: sim-grid-A-45
TYPE: TSP
COMMENT: Semi-regular Grid
DIMENSION: 45
EDGE_WEIGHT_TYPE: EUC_2D
NODE_COORD_SECTION
1 150 50
2 350 50
3 850 50
4 1100 50
5 150 100
6 400 100
7 1100 100
8 1150 100
9 300 250
10 700 250
11 1500 250
12 100 300
13 700 300
14 900 300
15 1500 300
16 350 450
17 500 450
18 550 450
19 700 450
20 900 450
21 1300 450
22 1350 450
23 1500 450
24 1550 450
25 150 500
26 350 500
27 700 500
28 750 500
29 900 500
30 1100 500
31 1550 500
32 200 650
33 400 650
34 700 650
35 800 650
36 1000 650
37 1100 650
38 200 700
39 400 700
40 500 700
41 700 700
42 1000 700
43 1100 700
44 1300 700
45 1400 700
EOF
